p tw 130 300
0 1
0 2
0 6
0 7
0 16
0 17
0 23
0 24
0 77
0 78
0 15
0 83
0 85
0 87
0 80
0 91
0 60
0 104
1 2
1 32
1 38
3 4
3 5
3 39
3 40
3 51
3 52
3 57
3 67
3 73
3 74
3 29
3 75
3 30
3 47
4 5
4 13
4 25
5 36
5 37
6 7
6 26
6 43
7 13
7 49
8 9
8 10
8 13
8 109
9 10
9 49
9 50
9 60
9 61
9 71
9 72
9 107
9 112
9 12
9 126
9 77
9 114
10 32
10 100
11 12
11 13
11 19
11 33
12 13
12 126
13 14
13 15
13 28
13 29
13 35
13 44
13 38
13 59
13 25
13 49
13 24
13 82
13 88
13 89
13 98
13 99
13 81
13 101
13 107
13 108
13 109
13 69
13 118
13 121
13 123
13 17
13 125
14 15
14 26
14 64
15 83
16 17
16 45
16 46
17 125
18 19
18 20
18 45
18 54
19 20
19 21
19 22
19 33
19 47
19 48
19 68
19 69
19 46
19 65
19 37
19 90
19 42
19 94
19 63
19 95
19 102
19 103
19 50
19 105
19 109
19 110
19 72
19 97
19 119
19 124
21 22
22 32
22 98
23 24
23 32
23 54
24 82
25 26
25 27
26 27
26 41
26 42
26 43
26 57
26 58
26 61
26 70
26 64
26 102
26 106
26 51
26 113
26 110
26 115
26 84
26 122
26 56
26 91
26 74
26 86
26 112
26 124
28 29
29 75
30 31
30 32
30 47
31 32
31 36
31 79
32 34
32 35
32 38
32 54
32 55
32 56
32 33
32 76
32 96
32 97
32 100
32 53
32 121
32 98
33 76
34 35
35 44
36 37
36 41
36 53
36 65
36 66
36 79
36 44
36 58
36 59
36 84
36 85
36 86
36 92
36 93
36 52
36 114
36 88
36 96
37 90
38 59
39 40
39 45
39 68
40 62
40 117
41 42
41 53
42 94
44 58
45 46
45 80
45 81
45 54
45 99
45 111
45 87
45 127
45 68
45 48
45 129
46 65
47 48
48 129
49 50
50 105
51 52
51 113
52 114
53 121
55 56
56 91
57 58
57 67
59 84
60 61
60 104
61 70
62 63
62 64
62 92
62 104
62 111
62 116
62 117
62 119
62 120
62 126
62 128
62 75
62 103
63 64
63 95
65 66
68 69
69 118
71 72
72 97
73 74
74 86
75 103
77 78
77 114
80 81
80 91
81 101
84 122
85 86
85 87
87 127
88 89
88 96
92 93
92 104
96 97
98 99
99 111
102 103
102 106
107 108
107 112
109 110
110 115
111 116
112 124
119 120
119 124
121 123
126 128
